data/mip_solutions/furman_sahinidis/transshipment/22sp-ph_cplex.sol
Elapsed time: 0.0431661605835
Nodes explored: 0
Upper bound: 26.0
Lower bound: 26.0
y[0,0]=1
y[1,5]=1
y[1,8]=1
y[1,10]=1
y[1,11]=1
y[2,11]=1
y[3,0]=1
y[4,2]=1
y[4,9]=1
y[4,11]=1
y[5,0]=1
y[6,0]=1
y[6,1]=1
y[6,4]=1
y[6,7]=1
y[6,8]=1
y[6,11]=1
y[7,0]=1
y[8,1]=1
y[8,3]=1
y[8,8]=1
y[8,11]=1
y[9,0]=1
y[10,0]=1
y[11,6]=1
y[11,8]=1
q[0,0,13]=12.0
q[1,5,8]=16.0
q[1,5,9]=144.0
q[1,5,10]=64.0
q[1,5,11]=160.0
q[1,5,12]=16.0
q[1,5,13]=96.0
q[1,5,14]=48.0
q[1,5,15]=96.0
q[1,5,16]=32.0
q[1,8,3]=140.0
q[1,8,4]=55.0
q[1,8,5]=67.2
q[1,8,6]=14.0
q[1,8,7]=308.0
q[1,10,4]=3.8
q[1,11,17]=280.0
q[2,11,17]=1242.0
q[3,0,17]=5.9
q[4,2,14]=90.0
q[4,2,15]=180.0
q[4,2,16]=60.0
q[4,9,10]=2.2
q[4,11,17]=1967.8
q[5,0,15]=3.5
q[6,0,8]=8.0
q[6,0,9]=72.0
q[6,0,10]=32.0
q[6,0,11]=80.0
q[6,0,12]=8.0
q[6,0,13]=36.0
q[6,0,14]=19.6
q[6,0,15]=39.4
q[6,0,16]=16.0
q[6,0,17]=132.64
q[6,1,13]=432.0
q[6,1,14]=216.0
q[6,4,8]=7.6
q[6,7,6]=8.0
q[6,8,6]=8.4
q[6,8,7]=242.4
q[6,11,17]=135.96
q[7,0,14]=4.4
q[7,0,15]=5.1
q[8,1,8]=72.0
q[8,1,9]=648.0
q[8,1,10]=288.0
q[8,1,11]=720.0
q[8,1,12]=72.0
q[8,1,15]=432.0
q[8,1,16]=144.0
q[8,3,1]=12.0
q[8,8,1]=1994.4
q[8,8,2]=528.0
q[8,8,3]=448.6
q[8,8,4]=396.2
q[8,8,5]=158.4
q[8,8,6]=52.8
q[8,8,7]=1104.0
q[8,11,17]=1272.0
q[9,0,17]=2.0
q[10,0,17]=3.46
q[11,6,3]=4.1
q[11,8,0]=1955.2
q[11,8,1]=863.2
q[11,8,2]=224.0
q[11,8,3]=163.4
r[0,13]=12.0
r[1,5]=25.2
r[1,9]=110.0
r[1,10]=92.0
r[1,11]=84.0
r[1,12]=64.0
r[1,13]=62.0
r[1,14]=50.0
r[1,15]=44.0
r[1,16]=32.0
r[1,17]=28.0
r[2,14]=276.0
r[2,15]=414.0
r[2,16]=690.0
r[2,17]=782.0
r[3,16]=5.9
r[3,17]=5.9
r[4,11]=181.8
r[4,12]=641.8
r[4,13]=687.8
r[4,14]=963.8
r[4,15]=1011.8
r[4,16]=1107.8
r[4,17]=1139.8
r[5,15]=3.5
r[6,7]=1.6
r[6,8]=155.2
r[6,9]=301.6
r[6,10]=391.6
r[6,11]=431.6
r[6,12]=531.6
r[6,13]=541.6
r[6,14]=181.6
r[6,16]=68.6
r[6,17]=88.6
r[7,15]=5.1
r[8,4]=79.4
r[8,8]=57.6
r[8,9]=460.8
r[8,10]=288.0
r[8,11]=211.2
r[8,12]=19.2
r[8,14]=316.8
r[8,15]=475.2
r[8,16]=360.0
r[8,17]=321.6
r[10,17]=3.46
r[11,1]=1254.7
r[11,2]=391.5
r[11,3]=167.5
